NAME: random_points
TYPE: TSP
DIMENSION: 20
EDGE_WEIGHT_TYPE: EUC_2D
NODE_COORD_SECTION
1 527 751
2 886 589
3 405 84
4 656 208
5 209 672
6 967 633
7 349 628
8 290 249
9 140 944
10 490 83
11 901 528
12 410 447
13 559 697
14 727 345
15 163 800
16 832 393
17 814 734
18 566 859
19 413 45
20 893 758
EOF
